c SAT Generator for power-law distributed variable frequencies
c -g u -v 20 -c 91 -k 3 -p 2.750000 -b 3.200000 -f /home/schmidt/Devel/ni-kop-sat/data/ensemble/ruf20-91/ruf20-91-449 -u 1 -U 1 -s 1976427263
p cnf 20 91
-1 5 -20 0
-4 -8 14 0
-6 -15 -18 0
-6 -8 19 0
-11 -14 -16 0
6 11 -16 0
-10 -11 -19 0
4 -5 18 0
8 -12 -16 0
-7 -10 12 0
8 17 20 0
-2 5 20 0
16 18 19 0
-8 -14 16 0
4 12 -14 0
-4 -15 18 0
5 -7 18 0
6 8 -12 0
9 -11 -13 0
8 9 20 0
1 -10 -19 0
-9 -11 -19 0
9 15 20 0
-4 6 10 0
3 12 17 0
-4 -5 16 0
6 -7 15 0
2 -4 -15 0
1 -9 -12 0
-4 -9 -16 0
-4 -14 19 0
-6 -10 -19 0
2 12 -17 0
6 -8 -9 0
4 -9 17 0
-7 16 -17 0
12 17 -19 0
11 14 -18 0
-1 12 -18 0
4 -7 19 0
3 9 17 0
-2 10 -17 0
1 3 -5 0
1 -12 -18 0
-1 8 17 0
11 12 -20 0
4 7 16 0
-12 14 -17 0
-4 -18 19 0
3 10 19 0
-8 -13 -18 0
-2 -9 17 0
-5 10 -13 0
-5 -6 11 0
-6 7 10 0
-3 14 15 0
-16 17 -19 0
-8 -13 19 0
1 -13 -14 0
5 13 15 0
2 -6 19 0
5 -8 11 0
5 12 -19 0
-5 -7 -16 0
-2 8 -9 0
10 -12 -17 0
-1 3 -13 0
10 -14 -15 0
2 -5 6 0
-9 -13 16 0
-4 5 -10 0
1 5 -19 0
-6 -9 -12 0
-9 15 -18 0
-13 15 -17 0
8 -14 -18 0
-5 11 -15 0
10 -17 20 0
2 5 14 0
12 15 -19 0
-3 -13 -15 0
-7 -13 15 0
6 -10 -16 0
1 11 -15 0
5 -8 9 0
4 17 -20 0
-5 14 20 0
-2 -8 -16 0
-9 17 20 0
-11 -12 13 0
-8 -10 13 0
